11
-1 29 20 21 16 31 10 15 25 30 35
29 -1 15 17 28 25 12 22 24 32 20
20 15 -1 18 22 26 21 27 20 29 24
21 17 18 -1 19 23 26 28 22 30 31
16 28 22 19 -1 27 10 12 15 25 30
31 25 26 23 27 -1 22 20 18 28 20
10 12 21 26 10 22 -1 19 27 18 20
15 22 27 28 12 20 19 -1 30 24 25
25 24 20 22 15 18 27 30 -1 35 28
30 32 29 30 25 28 18 24 35 -1 22
35 20 24 31 30 20 20 25 28 22 -1